10
1 0 7
2 0 2
2 1 9
3 0 9
3 1 4
3 2 1
4 0 6
4 1 4
4 2 6
4 3 4
5 0 2
5 1 4
5 2 4
5 3 8
5 4 9
6 0 2
6 1 7
6 2 8
6 3 10
6 4 8
6 5 7
7 0 1
7 1 1
7 2 6
7 3 8
7 4 8
7 5 9
7 6 4
8 0 9
8 1 2
8 2 8
8 3 6
8 4 7
8 5 7
8 6 7
8 7 9
9 0 3
9 1 2
9 2 8
9 3 3
9 4 8
9 5 8
9 6 1
9 7 7
9 8 7
